% From JaCoP's nonogramRepository/data039.nin
 rows = 25;
 row_rule_len = 6;
 row_rules = array2d(1..rows, 1..row_rule_len, 
[
 0,0,0,0,0,8,
 0,0,0,0,5,3,
 0,0,0,0,4,2,
 0,0,0,0,3,2,
 0,0,0,3,3,1,
 0,0,2,3,1,2,
 0,0,0,6,2,1,
 0,0,0,5,3,2,
 0,0,4,1,2,1,
 0,0,1,1,4,1,
 0,0,2,1,3,1,
 0,0,4,2,4,1,
 0,2,2,2,3,2,
 0,0,1,2,4,3,
 0,2,2,1,2,4,
 0,4,3,2,2,1,
 0,2,6,3,2,1,
 2,2,4,2,2,1,
 2,2,2,5,2,1,
 3,2,2,3,2,1,
 2,3,1,3,3,1,
 0,2,3,4,4,2,
 4,4,1,1,3,2,
 0,0,3,2,8,3,
 0,0,0,0,6,10
]);

 cols = 25;
 col_rule_len = 6;
 col_rules = array2d(1..cols, 1..col_rule_len, 
[
 0,0,0,0,4,3,
 0,0,0,1,3,5,
 0,0,0,2,9,3,
 0,0,5,1,6,4,
 0,0,5,1,2,1,
 3,2,2,2,2,1,
 3,2,2,1,3,1,
 0,0,2,1,4,2,
 0,3,2,1,2,2,
 2,1,1,2,3,2,
 2,2,1,2,2,5,
 1,1,3,3,2,4,
 0,1,10,3,2,2,
 0,0,1,7,1,3,
 0,0,0,1,11,2,
 0,0,2,3,3,3,
 0,0,1,2,2,2,
 0,0,2,1,1,3,
 0,2,1,2,2,1,
 0,0,3,1,2,1,
 0,0,0,3,2,2,
 0,0,0,0,15,1,
 0,0,0,0,9,2,
 0,0,0,0,2,2,
 0,0,0,0,0,8
]);

